NAME : XML100_3174_25
DIMENSION : 101
NB_CLUSTERS : 23
CLUSTERING_ALG : KMeans
CLUSTERING_PARAMS : k(22)
CLUSTERS
1 0
2 8 32 34 51 57 65 74 89 99
3 36 42 59 82 92
4 33 52 60 96
5 13 18 22 26 66 77 100
6 16 23 63 73 86 98
7 9 10 46 90
8 4 37 48 49 78 84
9 2 28 41 45 88
10 25 50 53 69 80 81
11 58 79
12 29 93
13 21 31 44 55 95
14 15 30 64 94
15 3 6 38 71
16 11 68
17 5 61 91
18 20 72
19 1 12 17 54 67 70
20 24 27 35 75 76 83
21 7 56 87
22 14 47 62
23 19 39 40 43 85 97
EOF